c ind 102 105 11 115 118 12 136 139 143 146 0
c ind 152 155 165 168 178 181 19 191 194 204 0
c ind 207 217 22 220 235 242 256 262 270 282 0
c ind 294 306 318 330 34 350 356 364 37 376 0
c ind 388 400 41 412 424 44 478 482 487 496 0
c ind 50 505 514 523 53 532 63 66 7 711 0
c ind 715 720 729 738 747 756 76 765 79 8 0
c ind 89 92 0
p cnf 891 2839
-1 -2 13 0
-1 2 662 0
-10 -11 0
-100 -101 -107 0
-100 101 107 0
-101 -102 -103 0
-101 102 103 0
-103 -104 -106 0
-103 104 106 0
-104 -105 0
-106 91 0
-106 93 0
-107 108 111 0
-108 109 110 0
-109 89 0
-109 90 0
-110 90 0
-110 94 0
-111 89 0
-111 94 0
-112 -113 12 0
-112 -12 113 0
-113 -114 -120 0
-113 114 120 0
-114 -115 -116 0
-114 115 116 0
-116 -117 -119 0
-116 117 119 0
-117 -118 0
-119 104 0
-119 106 0
-12 0
-120 121 124 0
-121 122 123 0
-122 102 0
-122 103 0
-123 103 0
-123 107 0
-124 102 0
-124 107 0
-125 -126 227 0
-125 126 12 0
-126 127 0
-126 214 0
-127 128 0
-127 201 0
-128 129 0
-128 188 0
-129 130 0
-129 175 0
-13 -14 23 0
-13 14 12 0
-130 131 0
-130 162 0
-131 132 0
-131 149 0
-132 133 0
-132 140 0
-133 -12 134 0
-133 -134 12 0
-134 -135 -12 0
-134 135 12 0
-135 -136 -137 0
-135 136 137 0
-137 -138 -8 0
-137 138 8 0
-138 -139 0
-14 -12 15 0
-14 -15 12 0
-140 -12 141 0
-140 -141 12 0
-141 -142 -148 0
-141 142 148 0
-142 -143 -144 0
-142 143 144 0
-144 -145 -147 0
-144 145 147 0
-145 -146 0
-147 138 0
-147 8 0
-148 136 0
-148 137 0
-149 -12 150 0
-149 -150 12 0
-15 -16 -12 0
-15 16 12 0
-150 -151 -157 0
-150 151 157 0
-151 -152 -153 0
-151 152 153 0
-153 -154 -156 0
-153 154 156 0
-154 -155 0
-156 145 0
-156 147 0
-157 158 161 0
-158 159 160 0
-159 143 0
-159 144 0
-16 -17 -20 0
-16 17 20 0
-160 144 0
-160 148 0
-161 143 0
-161 148 0
-162 -12 163 0
-162 -163 12 0
-163 -164 -170 0
-163 164 170 0
-164 -165 -166 0
-164 165 166 0
-166 -167 -169 0
-166 167 169 0
-167 -168 0
-169 154 0
-169 156 0
-17 -18 -8 0
-17 18 8 0
-170 171 174 0
-171 172 173 0
-172 152 0
-172 153 0
-173 153 0
-173 157 0
-174 152 0
-174 157 0
-175 -12 176 0
-175 -176 12 0
-176 -177 -183 0
-176 177 183 0
-177 -178 -179 0
-177 178 179 0
-179 -180 -182 0
-179 180 182 0
-18 -19 0
-180 -181 0
-182 167 0
-182 169 0
-183 184 187 0
-184 185 186 0
-185 165 0
-185 166 0
-186 166 0
-186 170 0
-187 165 0
-187 170 0
-188 -12 189 0
-188 -189 12 0
-189 -190 -196 0
-189 190 196 0
-190 -191 -192 0
-190 191 192 0
-192 -193 -195 0
-192 193 195 0
-193 -194 0
-195 180 0
-195 182 0
-196 197 200 0
-197 198 199 0
-198 178 0
-198 179 0
-199 179 0
-199 183 0
-2 -12 3 0
-2 -3 12 0
-20 -21 -8 0
-20 21 8 0
-200 178 0
-200 183 0
-201 -12 202 0
-201 -202 12 0
-202 -203 -209 0
-202 203 209 0
-203 -204 -205 0
-203 204 205 0
-205 -206 -208 0
-205 206 208 0
-206 -207 0
-208 193 0
-208 195 0
-209 210 213 0
-21 -22 0
-210 211 212 0
-211 191 0
-211 192 0
-212 192 0
-212 196 0
-213 191 0
-213 196 0
-214 -12 215 0
-214 -215 12 0
-215 -216 -222 0
-215 216 222 0
-216 -217 -218 0
-216 217 218 0
-218 -219 -221 0
-218 219 221 0
-219 -220 0
-221 206 0
-221 208 0
-222 223 226 0
-223 224 225 0
-224 204 0
-224 205 0
-225 205 0
-225 209 0
-226 204 0
-226 209 0
-227 -228 229 0
-227 228 626 0
-228 -12 20 0
-228 -20 12 0
-229 -230 236 0
-229 230 431 0
-23 -24 125 0
-23 24 12 0
-230 -12 231 0
-230 -231 12 0
-231 -232 -12 0
-231 232 12 0
-232 -9 -233 0
-232 9 233 0
-233 -234 -8 0
-233 234 8 0
-234 -235 0
-236 -237 243 0
-236 237 12 0
-237 -12 238 0
-237 -238 12 0
-238 -239 -12 0
-238 239 12 0
-239 -20 -240 0
-239 20 240 0
-24 112 0
-24 25 0
-240 -241 -8 0
-240 241 8 0
-241 -242 0
-243 -244 337 0
-243 244 12 0
-244 245 0
-244 325 0
-245 246 0
-245 313 0
-246 247 0
-246 301 0
-247 248 0
-247 289 0
-248 249 0
-248 277 0
-249 250 0
-249 265 0
-25 26 0
-25 99 0
-250 251 0
-250 257 0
-251 -12 252 0
-251 -252 12 0
-252 -253 -12 0
-252 253 12 0
-253 -37 -254 0
-253 37 254 0
-254 -255 -8 0
-254 255 8 0
-255 -256 0
-257 -12 258 0
-257 -258 12 0
-258 -259 -264 0
-258 259 264 0
-259 -44 -260 0
-259 44 260 0
-26 27 0
-26 86 0
-260 -261 -263 0
-260 261 263 0
-261 -262 0
-263 255 0
-263 8 0
-264 254 0
-264 37 0
-265 -12 266 0
-265 -266 12 0
-266 -267 -272 0
-266 267 272 0
-267 -53 -268 0
-267 53 268 0
-268 -269 -271 0
-268 269 271 0
-269 -270 0
-27 28 0
-27 73 0
-271 261 0
-271 263 0
-272 273 276 0
-273 274 275 0
-274 260 0
-274 44 0
-275 260 0
-275 264 0
-276 264 0
-276 44 0
-277 -12 278 0
-277 -278 12 0
-278 -279 -284 0
-278 279 284 0
-279 -66 -280 0
-279 66 280 0
-28 29 0
-28 60 0
-280 -281 -283 0
-280 281 283 0
-281 -282 0
-283 269 0
-283 271 0
-284 285 288 0
-285 286 287 0
-286 268 0
-286 53 0
-287 268 0
-287 272 0
-288 272 0
-288 53 0
-289 -12 290 0
-289 -290 12 0
-29 30 0
-29 47 0
-290 -291 -296 0
-290 291 296 0
-291 -79 -292 0
-291 79 292 0
-292 -293 -295 0
-292 293 295 0
-293 -294 0
-295 281 0
-295 283 0
-296 297 300 0
-297 298 299 0
-298 280 0
-298 66 0
-299 280 0
-299 284 0
-3 -4 -12 0
-3 4 12 0
-30 31 0
-30 38 0
-300 284 0
-300 66 0
-301 -12 302 0
-301 -302 12 0
-302 -303 -308 0
-302 303 308 0
-303 -92 -304 0
-303 92 304 0
-304 -305 -307 0
-304 305 307 0
-305 -306 0
-307 293 0
-307 295 0
-308 309 312 0
-309 310 311 0
-31 -12 32 0
-31 -32 12 0
-310 292 0
-310 79 0
-311 292 0
-311 296 0
-312 296 0
-312 79 0
-313 -12 314 0
-313 -314 12 0
-314 -315 -320 0
-314 315 320 0
-315 -105 -316 0
-315 105 316 0
-316 -317 -319 0
-316 317 319 0
-317 -318 0
-319 305 0
-319 307 0
-32 -33 -12 0
-32 33 12 0
-320 321 324 0
-321 322 323 0
-322 304 0
-322 92 0
-323 304 0
-323 308 0
-324 308 0
-324 92 0
-325 -12 326 0
-325 -326 12 0
-326 -327 -332 0
-326 327 332 0
-327 -118 -328 0
-327 118 328 0
-328 -329 -331 0
-328 329 331 0
-329 -330 0
-33 -34 -35 0
-33 34 35 0
-331 317 0
-331 319 0
-332 333 336 0
-333 334 335 0
-334 105 0
-334 316 0
-335 316 0
-335 320 0
-336 105 0
-336 320 0
-337 -338 8 0
-337 338 12 0
-338 339 0
-338 419 0
-339 340 0
-339 407 0
-340 341 0
-340 395 0
-341 342 0
-341 383 0
-342 343 0
-342 371 0
-343 344 0
-343 359 0
-344 345 0
-344 351 0
-345 -12 346 0
-345 -346 12 0
-346 -347 -12 0
-346 347 12 0
-347 -139 -348 0
-347 139 348 0
-348 -349 -8 0
-348 349 8 0
-349 -350 0
-35 -36 -8 0
-35 36 8 0
-351 -12 352 0
-351 -352 12 0
-352 -353 -358 0
-352 353 358 0
-353 -146 -354 0
-353 146 354 0
-354 -355 -357 0
-354 355 357 0
-355 -356 0
-357 349 0
-357 8 0
-358 139 0
-358 348 0
-359 -12 360 0
-359 -360 12 0
-36 -37 0
-360 -361 -366 0
-360 361 366 0
-361 -155 -362 0
-361 155 362 0
-362 -363 -365 0
-362 363 365 0
-363 -364 0
-365 355 0
-365 357 0
-366 367 370 0
-367 368 369 0
-368 146 0
-368 354 0
-369 354 0
-369 358 0
-370 146 0
-370 358 0
-371 -12 372 0
-371 -372 12 0
-372 -373 -378 0
-372 373 378 0
-373 -168 -374 0
-373 168 374 0
-374 -375 -377 0
-374 375 377 0
-375 -376 0
-377 363 0
-377 365 0
-378 379 382 0
-379 380 381 0
-38 -12 39 0
-38 -39 12 0
-380 155 0
-380 362 0
-381 362 0
-381 366 0
-382 155 0
-382 366 0
-383 -12 384 0
-383 -384 12 0
-384 -385 -390 0
-384 385 390 0
-385 -181 -386 0
-385 181 386 0
-386 -387 -389 0
-386 387 389 0
-387 -388 0
-389 375 0
-389 377 0
-39 -40 -46 0
-39 40 46 0
-390 391 394 0
-391 392 393 0
-392 168 0
-392 374 0
-393 374 0
-393 378 0
-394 168 0
-394 378 0
-395 -12 396 0
-395 -396 12 0
-396 -397 -402 0
-396 397 402 0
-397 -194 -398 0
-397 194 398 0
-398 -399 -401 0
-398 399 401 0
-399 -400 0
-4 -5 -9 0
-4 5 9 0
-40 -41 -42 0
-40 41 42 0
-401 387 0
-401 389 0
-402 403 406 0
-403 404 405 0
-404 181 0
-404 386 0
-405 386 0
-405 390 0
-406 181 0
-406 390 0
-407 -12 408 0
-407 -408 12 0
-408 -409 -414 0
-408 409 414 0
-409 -207 -410 0
-409 207 410 0
-410 -411 -413 0
-410 411 413 0
-411 -412 0
-413 399 0
-413 401 0
-414 415 418 0
-415 416 417 0
-416 194 0
-416 398 0
-417 398 0
-417 402 0
-418 194 0
-418 402 0
-419 -12 420 0
-419 -420 12 0
-42 -43 -45 0
-42 43 45 0
-420 -421 -426 0
-420 421 426 0
-421 -220 -422 0
-421 220 422 0
-422 -423 -425 0
-422 423 425 0
-423 -424 0
-425 411 0
-425 413 0
-426 427 430 0
-427 428 429 0
-428 207 0
-428 410 0
-429 410 0
-429 414 0
-43 -44 0
-430 207 0
-430 414 0
-431 -432 433 0
-431 432 236 0
-432 -233 8 0
-432 -8 233 0
-433 -434 449 0
-433 434 611 0
-434 435 0
-434 448 0
-435 436 0
-435 447 0
-436 437 0
-436 446 0
-437 438 0
-437 445 0
-438 439 0
-438 444 0
-439 440 0
-439 443 0
-440 441 0
-440 442 0
-441 -12 37 0
-441 -37 12 0
-442 -12 44 0
-442 -44 12 0
-443 -12 53 0
-443 -53 12 0
-444 -12 66 0
-444 -66 12 0
-445 -12 79 0
-445 -79 12 0
-446 -12 92 0
-446 -92 12 0
-447 -105 12 0
-447 -12 105 0
-448 -118 12 0
-448 -12 118 0
-449 -450 451 0
-449 450 12 0
-45 36 0
-45 8 0
-450 -240 8 0
-450 -8 240 0
-451 -452 467 0
-451 452 547 0
-452 453 0
-452 466 0
-453 454 0
-453 465 0
-454 455 0
-454 464 0
-455 456 0
-455 463 0
-456 457 0
-456 462 0
-457 458 0
-457 461 0
-458 459 0
-458 460 0
-459 -37 8 0
-459 -8 37 0
-46 34 0
-46 35 0
-460 -44 8 0
-460 -8 44 0
-461 -53 8 0
-461 -8 53 0
-462 -66 8 0
-462 -8 66 0
-463 -79 8 0
-463 -8 79 0
-464 -8 92 0
-464 -92 8 0
-465 -105 8 0
-465 -8 105 0
-466 -118 8 0
-466 -8 118 0
-467 -468 538 0
-467 468 12 0
-468 469 0
-468 529 0
-469 470 0
-469 520 0
-47 -12 48 0
-47 -48 12 0
-470 471 0
-470 511 0
-471 472 0
-471 502 0
-472 473 0
-472 493 0
-473 474 0
-473 484 0
-474 475 0
-474 479 0
-475 -12 476 0
-475 -476 12 0
-476 -477 -12 0
-476 477 12 0
-477 -478 -254 0
-477 478 254 0
-479 -12 480 0
-479 -480 12 0
-48 -49 -55 0
-48 49 55 0
-480 -481 -483 0
-480 481 483 0
-481 -482 -260 0
-481 482 260 0
-483 254 0
-483 478 0
-484 -12 485 0
-484 -485 12 0
-485 -486 -488 0
-485 486 488 0
-486 -487 -268 0
-486 487 268 0
-488 489 492 0
-489 490 491 0
-49 -50 -51 0
-49 50 51 0
-490 260 0
-490 482 0
-491 260 0
-491 483 0
-492 482 0
-492 483 0
-493 -12 494 0
-493 -494 12 0
-494 -495 -497 0
-494 495 497 0
-495 -496 -280 0
-495 496 280 0
-497 498 501 0
-498 499 500 0
-499 268 0
-499 487 0
-5 -6 -8 0
-5 6 8 0
-500 268 0
-500 488 0
-501 487 0
-501 488 0
-502 -12 503 0
-502 -503 12 0
-503 -504 -506 0
-503 504 506 0
-504 -505 -292 0
-504 505 292 0
-506 507 510 0
-507 508 509 0
-508 280 0
-508 496 0
-509 280 0
-509 497 0
-51 -52 -54 0
-51 52 54 0
-510 496 0
-510 497 0
-511 -12 512 0
-511 -512 12 0
-512 -513 -515 0
-512 513 515 0
-513 -514 -304 0
-513 514 304 0
-515 516 519 0
-516 517 518 0
-517 292 0
-517 505 0
-518 292 0
-518 506 0
-519 505 0
-519 506 0
-52 -53 0
-520 -12 521 0
-520 -521 12 0
-521 -522 -524 0
-521 522 524 0
-522 -523 -316 0
-522 523 316 0
-524 525 528 0
-525 526 527 0
-526 304 0
-526 514 0
-527 304 0
-527 515 0
-528 514 0
-528 515 0
-529 -12 530 0
-529 -530 12 0
-530 -531 -533 0
-530 531 533 0
-531 -532 -328 0
-531 532 328 0
-533 534 537 0
-534 535 536 0
-535 316 0
-535 523 0
-536 316 0
-536 524 0
-537 523 0
-537 524 0
-538 -539 8 0
-538 539 12 0
-539 419 0
-539 540 0
-54 43 0
-54 45 0
-540 407 0
-540 541 0
-541 395 0
-541 542 0
-542 383 0
-542 543 0
-543 371 0
-543 544 0
-544 359 0
-544 545 0
-545 351 0
-545 546 0
-546 -346 8 0
-546 -8 346 0
-547 -468 548 0
-547 468 12 0
-548 -549 8 0
-548 549 12 0
-549 550 0
-549 603 0
-55 56 59 0
-550 551 0
-550 595 0
-551 552 0
-551 587 0
-552 553 0
-552 579 0
-553 554 0
-553 571 0
-554 555 0
-554 563 0
-555 556 0
-555 559 0
-556 -557 8 0
-556 -8 557 0
-557 -558 -12 0
-557 558 12 0
-558 -37 -348 0
-558 37 348 0
-559 -560 8 0
-559 -8 560 0
-56 57 58 0
-560 -561 -562 0
-560 561 562 0
-561 -44 -354 0
-561 44 354 0
-562 348 0
-562 37 0
-563 -564 8 0
-563 -8 564 0
-564 -565 -566 0
-564 565 566 0
-565 -53 -362 0
-565 53 362 0
-566 567 570 0
-567 568 569 0
-568 354 0
-568 44 0
-569 354 0
-569 562 0
-57 41 0
-57 42 0
-570 44 0
-570 562 0
-571 -572 8 0
-571 -8 572 0
-572 -573 -574 0
-572 573 574 0
-573 -66 -374 0
-573 66 374 0
-574 575 578 0
-575 576 577 0
-576 362 0
-576 53 0
-577 362 0
-577 566 0
-578 53 0
-578 566 0
-579 -580 8 0
-579 -8 580 0
-58 42 0
-58 46 0
-580 -581 -582 0
-580 581 582 0
-581 -79 -386 0
-581 79 386 0
-582 583 586 0
-583 584 585 0
-584 374 0
-584 66 0
-585 374 0
-585 574 0
-586 574 0
-586 66 0
-587 -588 8 0
-587 -8 588 0
-588 -589 -590 0
-588 589 590 0
-589 -92 -398 0
-589 92 398 0
-59 41 0
-59 46 0
-590 591 594 0
-591 592 593 0
-592 386 0
-592 79 0
-593 386 0
-593 582 0
-594 582 0
-594 79 0
-595 -596 8 0
-595 -8 596 0
-596 -597 -598 0
-596 597 598 0
-597 -105 -410 0
-597 105 410 0
-598 599 602 0
-599 600 601 0
-6 -7 0
-60 -12 61 0
-60 -61 12 0
-600 398 0
-600 92 0
-601 398 0
-601 590 0
-602 590 0
-602 92 0
-603 -604 8 0
-603 -8 604 0
-604 -605 -606 0
-604 605 606 0
-605 -118 -422 0
-605 118 422 0
-606 607 610 0
-607 608 609 0
-608 105 0
-608 410 0
-609 410 0
-609 598 0
-61 -62 -68 0
-61 62 68 0
-610 105 0
-610 598 0
-611 -452 612 0
-611 452 624 0
-612 -613 621 0
-612 613 12 0
-613 325 0
-613 614 0
-614 313 0
-614 615 0
-615 301 0
-615 616 0
-616 289 0
-616 617 0
-617 277 0
-617 618 0
-618 265 0
-618 619 0
-619 257 0
-619 620 0
-62 -63 -64 0
-62 63 64 0
-620 -252 8 0
-620 -8 252 0
-621 -539 622 0
-621 539 12 0
-622 -623 8 0
-622 623 12 0
-623 -12 240 0
-623 -240 12 0
-624 -613 625 0
-624 613 12 0
-625 -549 622 0
-625 549 12 0
-626 -230 236 0
-626 230 627 0
-627 -432 628 0
-627 432 236 0
-628 -450 629 0
-628 450 661 0
-629 -452 630 0
-629 452 646 0
-630 -468 631 0
-630 468 12 0
-631 -632 622 0
-631 632 12 0
-632 633 0
-632 645 0
-633 634 0
-633 644 0
-634 635 0
-634 643 0
-635 636 0
-635 642 0
-636 637 0
-636 641 0
-637 638 0
-637 640 0
-638 546 0
-638 639 0
-639 -352 8 0
-639 -8 352 0
-64 -65 -67 0
-64 65 67 0
-640 -360 8 0
-640 -8 360 0
-641 -372 8 0
-641 -8 372 0
-642 -384 8 0
-642 -8 384 0
-643 -396 8 0
-643 -8 396 0
-644 -408 8 0
-644 -8 408 0
-645 -420 8 0
-645 -8 420 0
-646 -647 548 0
-646 647 12 0
-647 648 0
-647 660 0
-648 649 0
-648 659 0
-649 650 0
-649 658 0
-65 -66 0
-650 651 0
-650 657 0
-651 652 0
-651 656 0
-652 653 0
-652 655 0
-653 620 0
-653 654 0
-654 -258 8 0
-654 -8 258 0
-655 -266 8 0
-655 -8 266 0
-656 -278 8 0
-656 -8 278 0
-657 -290 8 0
-657 -8 290 0
-658 -302 8 0
-658 -8 302 0
-659 -314 8 0
-659 -8 314 0
-660 -326 8 0
-660 -8 326 0
-661 -452 630 0
-661 452 12 0
-662 -663 664 0
-662 663 13 0
-663 -8 9 0
-663 -9 8 0
-664 -665 666 0
-664 665 858 0
-665 -12 17 0
-665 -17 12 0
-666 -667 682 0
-666 667 844 0
-667 668 0
-667 681 0
-668 669 0
-668 680 0
-669 670 0
-669 679 0
-67 52 0
-67 54 0
-670 671 0
-670 678 0
-671 672 0
-671 677 0
-672 673 0
-672 676 0
-673 674 0
-673 675 0
-674 -12 34 0
-674 -34 12 0
-675 -12 41 0
-675 -41 12 0
-676 -12 50 0
-676 -50 12 0
-677 -12 63 0
-677 -63 12 0
-678 -12 76 0
-678 -76 12 0
-679 -12 89 0
-679 -89 12 0
-68 69 72 0
-680 -102 12 0
-680 -12 102 0
-681 -115 12 0
-681 -12 115 0
-682 -683 684 0
-682 683 12 0
-683 -20 8 0
-683 -8 20 0
-684 -685 700 0
-684 685 780 0
-685 686 0
-685 699 0
-686 687 0
-686 698 0
-687 688 0
-687 697 0
-688 689 0
-688 696 0
-689 690 0
-689 695 0
-69 70 71 0
-690 691 0
-690 694 0
-691 692 0
-691 693 0
-692 -34 8 0
-692 -8 34 0
-693 -41 8 0
-693 -8 41 0
-694 -50 8 0
-694 -8 50 0
-695 -63 8 0
-695 -8 63 0
-696 -76 8 0
-696 -8 76 0
-697 -8 89 0
-697 -89 8 0
-698 -102 8 0
-698 -8 102 0
-699 -115 8 0
-699 -8 115 0
-70 50 0
-70 51 0
-700 -701 771 0
-700 701 12 0
-701 702 0
-701 762 0
-702 703 0
-702 753 0
-703 704 0
-703 744 0
-704 705 0
-704 735 0
-705 706 0
-705 726 0
-706 707 0
-706 717 0
-707 708 0
-707 712 0
-708 -12 709 0
-708 -709 12 0
-709 -710 -12 0
-709 710 12 0
-71 51 0
-71 55 0
-710 -711 -35 0
-710 711 35 0
-712 -12 713 0
-712 -713 12 0
-713 -714 -716 0
-713 714 716 0
-714 -715 -42 0
-714 715 42 0
-716 35 0
-716 711 0
-717 -12 718 0
-717 -718 12 0
-718 -719 -721 0
-718 719 721 0
-719 -720 -51 0
-719 720 51 0
-72 50 0
-72 55 0
-721 722 725 0
-722 723 724 0
-723 42 0
-723 715 0
-724 42 0
-724 716 0
-725 715 0
-725 716 0
-726 -12 727 0
-726 -727 12 0
-727 -728 -730 0
-727 728 730 0
-728 -729 -64 0
-728 729 64 0
-73 -12 74 0
-73 -74 12 0
-730 731 734 0
-731 732 733 0
-732 51 0
-732 720 0
-733 51 0
-733 721 0
-734 720 0
-734 721 0
-735 -12 736 0
-735 -736 12 0
-736 -737 -739 0
-736 737 739 0
-737 -738 -77 0
-737 738 77 0
-739 740 743 0
-74 -75 -81 0
-74 75 81 0
-740 741 742 0
-741 64 0
-741 729 0
-742 64 0
-742 730 0
-743 729 0
-743 730 0
-744 -12 745 0
-744 -745 12 0
-745 -746 -748 0
-745 746 748 0
-746 -747 -90 0
-746 747 90 0
-748 749 752 0
-749 750 751 0
-75 -76 -77 0
-75 76 77 0
-750 738 0
-750 77 0
-751 739 0
-751 77 0
-752 738 0
-752 739 0
-753 -12 754 0
-753 -754 12 0
-754 -755 -757 0
-754 755 757 0
-755 -756 -103 0
-755 756 103 0
-757 758 761 0
-758 759 760 0
-759 747 0
-759 90 0
-760 748 0
-760 90 0
-761 747 0
-761 748 0
-762 -12 763 0
-762 -763 12 0
-763 -764 -766 0
-763 764 766 0
-764 -765 -116 0
-764 765 116 0
-766 767 770 0
-767 768 769 0
-768 103 0
-768 756 0
-769 103 0
-769 757 0
-77 -78 -80 0
-77 78 80 0
-770 756 0
-770 757 0
-771 -772 227 0
-771 772 12 0
-772 214 0
-772 773 0
-773 201 0
-773 774 0
-774 188 0
-774 775 0
-775 175 0
-775 776 0
-776 162 0
-776 777 0
-777 149 0
-777 778 0
-778 140 0
-778 779 0
-779 -134 8 0
-779 -8 134 0
-78 -79 0
-780 -701 781 0
-780 701 12 0
-781 -782 227 0
-781 782 12 0
-782 783 0
-782 836 0
-783 784 0
-783 828 0
-784 785 0
-784 820 0
-785 786 0
-785 812 0
-786 787 0
-786 804 0
-787 788 0
-787 796 0
-788 789 0
-788 792 0
-789 -790 8 0
-789 -8 790 0
-790 -791 -12 0
-790 791 12 0
-791 -34 -137 0
-791 34 137 0
-792 -793 8 0
-792 -8 793 0
-793 -794 -795 0
-793 794 795 0
-794 -41 -144 0
-794 41 144 0
-795 137 0
-795 34 0
-796 -797 8 0
-796 -8 797 0
-797 -798 -799 0
-797 798 799 0
-798 -50 -153 0
-798 50 153 0
-799 800 803 0
-80 65 0
-80 67 0
-800 801 802 0
-801 144 0
-801 41 0
-802 144 0
-802 795 0
-803 41 0
-803 795 0
-804 -8 805 0
-804 -805 8 0
-805 -806 -807 0
-805 806 807 0
-806 -63 -166 0
-806 63 166 0
-807 808 811 0
-808 809 810 0
-809 153 0
-809 50 0
-81 82 85 0
-810 153 0
-810 799 0
-811 50 0
-811 799 0
-812 -8 813 0
-812 -813 8 0
-813 -814 -815 0
-813 814 815 0
-814 -76 -179 0
-814 76 179 0
-815 816 819 0
-816 817 818 0
-817 166 0
-817 63 0
-818 166 0
-818 807 0
-819 63 0
-819 807 0
-82 83 84 0
-820 -8 821 0
-820 -821 8 0
-821 -822 -823 0
-821 822 823 0
-822 -89 -192 0
-822 89 192 0
-823 824 827 0
-824 825 826 0
-825 179 0
-825 76 0
-826 179 0
-826 815 0
-827 76 0
-827 815 0
-828 -8 829 0
-828 -829 8 0
-829 -830 -831 0
-829 830 831 0
-83 63 0
-83 64 0
-830 -102 -205 0
-830 102 205 0
-831 832 835 0
-832 833 834 0
-833 192 0
-833 89 0
-834 192 0
-834 823 0
-835 823 0
-835 89 0
-836 -8 837 0
-836 -837 8 0
-837 -838 -839 0
-837 838 839 0
-838 -115 -218 0
-838 115 218 0
-839 840 843 0
-84 64 0
-84 68 0
-840 841 842 0
-841 102 0
-841 205 0
-842 205 0
-842 831 0
-843 102 0
-843 831 0
-844 -685 845 0
-844 685 856 0
-845 -846 854 0
-845 846 12 0
-846 112 0
-846 847 0
-847 848 0
-847 99 0
-848 849 0
-848 86 0
-849 73 0
-849 850 0
-85 63 0
-85 68 0
-850 60 0
-850 851 0
-851 47 0
-851 852 0
-852 38 0
-852 853 0
-853 -32 8 0
-853 -8 32 0
-854 -772 855 0
-854 772 12 0
-855 -228 229 0
-855 228 12 0
-856 -846 857 0
-856 846 12 0
-857 -782 855 0
-857 782 12 0
-858 -683 859 0
-858 683 891 0
-859 -685 860 0
-859 685 876 0
-86 -12 87 0
-86 -87 12 0
-860 -701 861 0
-860 701 12 0
-861 -862 855 0
-861 862 12 0
-862 863 0
-862 875 0
-863 864 0
-863 874 0
-864 865 0
-864 873 0
-865 866 0
-865 872 0
-866 867 0
-866 871 0
-867 868 0
-867 870 0
-868 779 0
-868 869 0
-869 -141 8 0
-869 -8 141 0
-87 -88 -94 0
-87 88 94 0
-870 -150 8 0
-870 -8 150 0
-871 -163 8 0
-871 -8 163 0
-872 -176 8 0
-872 -8 176 0
-873 -189 8 0
-873 -8 189 0
-874 -202 8 0
-874 -8 202 0
-875 -215 8 0
-875 -8 215 0
-876 -877 781 0
-876 877 12 0
-877 878 0
-877 890 0
-878 879 0
-878 889 0
-879 880 0
-879 888 0
-88 -89 -90 0
-88 89 90 0
-880 881 0
-880 887 0
-881 882 0
-881 886 0
-882 883 0
-882 885 0
-883 853 0
-883 884 0
-884 -39 8 0
-884 -8 39 0
-885 -48 8 0
-885 -8 48 0
-886 -61 8 0
-886 -8 61 0
-887 -74 8 0
-887 -8 74 0
-888 -8 87 0
-888 -87 8 0
-889 -100 8 0
-889 -8 100 0
-890 -113 8 0
-890 -8 113 0
-891 -685 860 0
-891 685 12 0
-9 -10 -8 0
-9 10 8 0
-90 -91 -93 0
-90 91 93 0
-91 -92 0
-93 78 0
-93 80 0
-94 95 98 0
-95 96 97 0
-96 76 0
-96 77 0
-97 77 0
-97 81 0
-98 76 0
-98 81 0
-99 -100 12 0
-99 -12 100 0
1 -13 -662 0
1 -2 -13 0
1 0
1 2 -662 0
10 11 0
100 -101 107 0
100 -107 101 0
101 -102 103 0
101 -103 102 0
103 -104 106 0
103 -106 104 0
104 105 0
106 -91 -93 0
107 -108 0
107 -111 0
108 -109 0
108 -110 0
109 -89 -90 0
110 -90 -94 0
111 -89 -94 0
112 -113 -12 0
112 113 12 0
113 -114 120 0
113 -120 114 0
114 -115 116 0
114 -116 115 0
116 -117 119 0
116 -119 117 0
117 118 0
119 -104 -106 0
120 -121 0
120 -124 0
121 -122 0
121 -123 0
122 -102 -103 0
123 -103 -107 0
124 -102 -107 0
125 -126 -227 0
125 -227 -12 0
125 126 -12 0
126 -127 -214 0
127 -128 -201 0
128 -129 -188 0
129 -130 -175 0
13 -14 -23 0
13 -23 -12 0
13 14 -12 0
130 -131 -162 0
131 -132 -149 0
132 -133 -140 0
133 -134 -12 0
133 134 12 0
134 -12 135 0
134 -135 12 0
135 -136 137 0
135 -137 136 0
137 -138 8 0
137 -8 138 0
138 139 0
14 -15 -12 0
14 15 12 0
140 -141 -12 0
140 141 12 0
141 -142 148 0
141 -148 142 0
142 -143 144 0
142 -144 143 0
144 -145 147 0
144 -147 145 0
145 146 0
147 -138 -8 0
148 -136 -137 0
149 -150 -12 0
149 150 12 0
15 -12 16 0
15 -16 12 0
150 -151 157 0
150 -157 151 0
151 -152 153 0
151 -153 152 0
153 -154 156 0
153 -156 154 0
154 155 0
156 -145 -147 0
157 -158 0
157 -161 0
158 -159 0
158 -160 0
159 -143 -144 0
16 -17 20 0
16 -20 17 0
160 -144 -148 0
161 -143 -148 0
162 -163 -12 0
162 163 12 0
163 -164 170 0
163 -170 164 0
164 -165 166 0
164 -166 165 0
166 -167 169 0
166 -169 167 0
167 168 0
169 -154 -156 0
17 -18 8 0
17 -8 18 0
170 -171 0
170 -174 0
171 -172 0
171 -173 0
172 -152 -153 0
173 -153 -157 0
174 -152 -157 0
175 -176 -12 0
175 176 12 0
176 -177 183 0
176 -183 177 0
177 -178 179 0
177 -179 178 0
179 -180 182 0
179 -182 180 0
18 19 0
180 181 0
182 -167 -169 0
183 -184 0
183 -187 0
184 -185 0
184 -186 0
185 -165 -166 0
186 -166 -170 0
187 -165 -170 0
188 -189 -12 0
188 189 12 0
189 -190 196 0
189 -196 190 0
190 -191 192 0
190 -192 191 0
192 -193 195 0
192 -195 193 0
193 194 0
195 -180 -182 0
196 -197 0
196 -200 0
197 -198 0
197 -199 0
198 -178 -179 0
199 -179 -183 0
2 -3 -12 0
2 3 12 0
20 -21 8 0
20 -8 21 0
200 -178 -183 0
201 -202 -12 0
201 202 12 0
202 -203 209 0
202 -209 203 0
203 -204 205 0
203 -205 204 0
205 -206 208 0
205 -208 206 0
206 207 0
208 -193 -195 0
209 -210 0
209 -213 0
21 22 0
210 -211 0
210 -212 0
211 -191 -192 0
212 -192 -196 0
213 -191 -196 0
214 -215 -12 0
214 215 12 0
215 -216 222 0
215 -222 216 0
216 -217 218 0
216 -218 217 0
218 -219 221 0
218 -221 219 0
219 220 0
221 -206 -208 0
222 -223 0
222 -226 0
223 -224 0
223 -225 0
224 -204 -205 0
225 -205 -209 0
226 -204 -209 0
227 -228 -229 0
227 -229 -626 0
227 228 -626 0
228 -20 -12 0
228 20 12 0
229 -230 -236 0
229 -236 -431 0
229 230 -431 0
23 -125 -12 0
23 -24 -125 0
23 24 -12 0
230 -231 -12 0
230 231 12 0
231 -12 232 0
231 -232 12 0
232 -233 9 0
232 -9 233 0
233 -234 8 0
233 -8 234 0
234 235 0
236 -237 -243 0
236 -243 -12 0
236 237 -12 0
237 -238 -12 0
237 238 12 0
238 -12 239 0
238 -239 12 0
239 -20 240 0
239 -240 20 0
24 -25 -112 0
240 -241 8 0
240 -8 241 0
241 242 0
243 -244 -337 0
243 -337 -12 0
243 244 -12 0
244 -245 -325 0
245 -246 -313 0
246 -247 -301 0
247 -248 -289 0
248 -249 -277 0
249 -250 -265 0
25 -26 -99 0
250 -251 -257 0
251 -252 -12 0
251 252 12 0
252 -12 253 0
252 -253 12 0
253 -254 37 0
253 -37 254 0
254 -255 8 0
254 -8 255 0
255 256 0
257 -258 -12 0
257 258 12 0
258 -259 264 0
258 -264 259 0
259 -260 44 0
259 -44 260 0
26 -27 -86 0
260 -261 263 0
260 -263 261 0
261 262 0
263 -255 -8 0
264 -37 -254 0
265 -266 -12 0
265 266 12 0
266 -267 272 0
266 -272 267 0
267 -268 53 0
267 -53 268 0
268 -269 271 0
268 -271 269 0
269 270 0
27 -28 -73 0
271 -261 -263 0
272 -273 0
272 -276 0
273 -274 0
273 -275 0
274 -44 -260 0
275 -260 -264 0
276 -44 -264 0
277 -278 -12 0
277 278 12 0
278 -279 284 0
278 -284 279 0
279 -280 66 0
279 -66 280 0
28 -29 -60 0
280 -281 283 0
280 -283 281 0
281 282 0
283 -269 -271 0
284 -285 0
284 -288 0
285 -286 0
285 -287 0
286 -53 -268 0
287 -268 -272 0
288 -53 -272 0
289 -290 -12 0
289 290 12 0
29 -30 -47 0
290 -291 296 0
290 -296 291 0
291 -292 79 0
291 -79 292 0
292 -293 295 0
292 -295 293 0
293 294 0
295 -281 -283 0
296 -297 0
296 -300 0
297 -298 0
297 -299 0
298 -66 -280 0
299 -280 -284 0
3 -12 4 0
3 -4 12 0
30 -31 -38 0
300 -66 -284 0
301 -302 -12 0
301 302 12 0
302 -303 308 0
302 -308 303 0
303 -304 92 0
303 -92 304 0
304 -305 307 0
304 -307 305 0
305 306 0
307 -293 -295 0
308 -309 0
308 -312 0
309 -310 0
309 -311 0
31 -32 -12 0
31 32 12 0
310 -79 -292 0
311 -292 -296 0
312 -79 -296 0
313 -314 -12 0
313 314 12 0
314 -315 320 0
314 -320 315 0
315 -105 316 0
315 -316 105 0
316 -317 319 0
316 -319 317 0
317 318 0
319 -305 -307 0
32 -12 33 0
32 -33 12 0
320 -321 0
320 -324 0
321 -322 0
321 -323 0
322 -92 -304 0
323 -304 -308 0
324 -92 -308 0
325 -326 -12 0
325 326 12 0
326 -327 332 0
326 -332 327 0
327 -118 328 0
327 -328 118 0
328 -329 331 0
328 -331 329 0
329 330 0
33 -34 35 0
33 -35 34 0
331 -317 -319 0
332 -333 0
332 -336 0
333 -334 0
333 -335 0
334 -105 -316 0
335 -316 -320 0
336 -105 -320 0
337 -338 -8 0
337 -8 -12 0
337 338 -12 0
338 -339 -419 0
339 -340 -407 0
340 -341 -395 0
341 -342 -383 0
342 -343 -371 0
343 -344 -359 0
344 -345 -351 0
345 -346 -12 0
345 346 12 0
346 -12 347 0
346 -347 12 0
347 -139 348 0
347 -348 139 0
348 -349 8 0
348 -8 349 0
349 350 0
35 -36 8 0
35 -8 36 0
351 -352 -12 0
351 352 12 0
352 -353 358 0
352 -358 353 0
353 -146 354 0
353 -354 146 0
354 -355 357 0
354 -357 355 0
355 356 0
357 -349 -8 0
358 -139 -348 0
359 -360 -12 0
359 360 12 0
36 37 0
360 -361 366 0
360 -366 361 0
361 -155 362 0
361 -362 155 0
362 -363 365 0
362 -365 363 0
363 364 0
365 -355 -357 0
366 -367 0
366 -370 0
367 -368 0
367 -369 0
368 -146 -354 0
369 -354 -358 0
370 -146 -358 0
371 -372 -12 0
371 372 12 0
372 -373 378 0
372 -378 373 0
373 -168 374 0
373 -374 168 0
374 -375 377 0
374 -377 375 0
375 376 0
377 -363 -365 0
378 -379 0
378 -382 0
379 -380 0
379 -381 0
38 -39 -12 0
38 39 12 0
380 -155 -362 0
381 -362 -366 0
382 -155 -366 0
383 -384 -12 0
383 384 12 0
384 -385 390 0
384 -390 385 0
385 -181 386 0
385 -386 181 0
386 -387 389 0
386 -389 387 0
387 388 0
389 -375 -377 0
39 -40 46 0
39 -46 40 0
390 -391 0
390 -394 0
391 -392 0
391 -393 0
392 -168 -374 0
393 -374 -378 0
394 -168 -378 0
395 -396 -12 0
395 396 12 0
396 -397 402 0
396 -402 397 0
397 -194 398 0
397 -398 194 0
398 -399 401 0
398 -401 399 0
399 400 0
4 -5 9 0
4 -9 5 0
40 -41 42 0
40 -42 41 0
401 -387 -389 0
402 -403 0
402 -406 0
403 -404 0
403 -405 0
404 -181 -386 0
405 -386 -390 0
406 -181 -390 0
407 -408 -12 0
407 408 12 0
408 -409 414 0
408 -414 409 0
409 -207 410 0
409 -410 207 0
410 -411 413 0
410 -413 411 0
411 412 0
413 -399 -401 0
414 -415 0
414 -418 0
415 -416 0
415 -417 0
416 -194 -398 0
417 -398 -402 0
418 -194 -402 0
419 -420 -12 0
419 420 12 0
42 -43 45 0
42 -45 43 0
420 -421 426 0
420 -426 421 0
421 -220 422 0
421 -422 220 0
422 -423 425 0
422 -425 423 0
423 424 0
425 -411 -413 0
426 -427 0
426 -430 0
427 -428 0
427 -429 0
428 -207 -410 0
429 -410 -414 0
43 44 0
430 -207 -414 0
431 -432 -433 0
431 -433 -236 0
431 432 -236 0
432 -233 -8 0
432 233 8 0
433 -434 -449 0
433 -449 -611 0
433 434 -611 0
434 -435 -448 0
435 -436 -447 0
436 -437 -446 0
437 -438 -445 0
438 -439 -444 0
439 -440 -443 0
440 -441 -442 0
441 -37 -12 0
441 37 12 0
442 -44 -12 0
442 44 12 0
443 -53 -12 0
443 53 12 0
444 -66 -12 0
444 66 12 0
445 -79 -12 0
445 79 12 0
446 -92 -12 0
446 92 12 0
447 -105 -12 0
447 105 12 0
448 -118 -12 0
448 118 12 0
449 -450 -451 0
449 -451 -12 0
449 450 -12 0
45 -36 -8 0
450 -240 -8 0
450 240 8 0
451 -452 -467 0
451 -467 -547 0
451 452 -547 0
452 -453 -466 0
453 -454 -465 0
454 -455 -464 0
455 -456 -463 0
456 -457 -462 0
457 -458 -461 0
458 -459 -460 0
459 -37 -8 0
459 37 8 0
46 -34 -35 0
460 -44 -8 0
460 44 8 0
461 -53 -8 0
461 53 8 0
462 -66 -8 0
462 66 8 0
463 -79 -8 0
463 79 8 0
464 -92 -8 0
464 92 8 0
465 -105 -8 0
465 105 8 0
466 -118 -8 0
466 118 8 0
467 -468 -538 0
467 -538 -12 0
467 468 -12 0
468 -469 -529 0
469 -470 -520 0
47 -48 -12 0
47 48 12 0
470 -471 -511 0
471 -472 -502 0
472 -473 -493 0
473 -474 -484 0
474 -475 -479 0
475 -476 -12 0
475 476 12 0
476 -12 477 0
476 -477 12 0
477 -254 478 0
477 -478 254 0
479 -480 -12 0
479 480 12 0
48 -49 55 0
48 -55 49 0
480 -481 483 0
480 -483 481 0
481 -260 482 0
481 -482 260 0
483 -478 -254 0
484 -485 -12 0
484 485 12 0
485 -486 488 0
485 -488 486 0
486 -268 487 0
486 -487 268 0
488 -489 0
488 -492 0
489 -490 0
489 -491 0
49 -50 51 0
49 -51 50 0
490 -482 -260 0
491 -260 -483 0
492 -482 -483 0
493 -494 -12 0
493 494 12 0
494 -495 497 0
494 -497 495 0
495 -280 496 0
495 -496 280 0
497 -498 0
497 -501 0
498 -499 0
498 -500 0
499 -487 -268 0
5 -6 8 0
5 -8 6 0
500 -268 -488 0
501 -487 -488 0
502 -503 -12 0
502 503 12 0
503 -504 506 0
503 -506 504 0
504 -292 505 0
504 -505 292 0
506 -507 0
506 -510 0
507 -508 0
507 -509 0
508 -496 -280 0
509 -280 -497 0
51 -52 54 0
51 -54 52 0
510 -496 -497 0
511 -512 -12 0
511 512 12 0
512 -513 515 0
512 -515 513 0
513 -304 514 0
513 -514 304 0
515 -516 0
515 -519 0
516 -517 0
516 -518 0
517 -505 -292 0
518 -292 -506 0
519 -505 -506 0
52 53 0
520 -521 -12 0
520 521 12 0
521 -522 524 0
521 -524 522 0
522 -316 523 0
522 -523 316 0
524 -525 0
524 -528 0
525 -526 0
525 -527 0
526 -514 -304 0
527 -304 -515 0
528 -514 -515 0
529 -530 -12 0
529 530 12 0
530 -531 533 0
530 -533 531 0
531 -328 532 0
531 -532 328 0
533 -534 0
533 -537 0
534 -535 0
534 -536 0
535 -523 -316 0
536 -316 -524 0
537 -523 -524 0
538 -539 -8 0
538 -8 -12 0
538 539 -12 0
539 -540 -419 0
54 -43 -45 0
540 -541 -407 0
541 -542 -395 0
542 -543 -383 0
543 -544 -371 0
544 -545 -359 0
545 -546 -351 0
546 -346 -8 0
546 346 8 0
547 -468 -548 0
547 -548 -12 0
547 468 -12 0
548 -549 -8 0
548 -8 -12 0
548 549 -12 0
549 -550 -603 0
55 -56 0
55 -59 0
550 -551 -595 0
551 -552 -587 0
552 -553 -579 0
553 -554 -571 0
554 -555 -563 0
555 -556 -559 0
556 -557 -8 0
556 557 8 0
557 -12 558 0
557 -558 12 0
558 -348 37 0
558 -37 348 0
559 -560 -8 0
559 560 8 0
56 -57 0
56 -58 0
560 -561 562 0
560 -562 561 0
561 -354 44 0
561 -44 354 0
562 -37 -348 0
563 -564 -8 0
563 564 8 0
564 -565 566 0
564 -566 565 0
565 -362 53 0
565 -53 362 0
566 -567 0
566 -570 0
567 -568 0
567 -569 0
568 -44 -354 0
569 -354 -562 0
57 -41 -42 0
570 -44 -562 0
571 -572 -8 0
571 572 8 0
572 -573 574 0
572 -574 573 0
573 -374 66 0
573 -66 374 0
574 -575 0
574 -578 0
575 -576 0
575 -577 0
576 -53 -362 0
577 -362 -566 0
578 -53 -566 0
579 -580 -8 0
579 580 8 0
58 -42 -46 0
580 -581 582 0
580 -582 581 0
581 -386 79 0
581 -79 386 0
582 -583 0
582 -586 0
583 -584 0
583 -585 0
584 -66 -374 0
585 -374 -574 0
586 -66 -574 0
587 -588 -8 0
587 588 8 0
588 -589 590 0
588 -590 589 0
589 -398 92 0
589 -92 398 0
59 -41 -46 0
590 -591 0
590 -594 0
591 -592 0
591 -593 0
592 -79 -386 0
593 -386 -582 0
594 -79 -582 0
595 -596 -8 0
595 596 8 0
596 -597 598 0
596 -598 597 0
597 -105 410 0
597 -410 105 0
598 -599 0
598 -602 0
599 -600 0
599 -601 0
6 7 0
60 -61 -12 0
60 61 12 0
600 -92 -398 0
601 -398 -590 0
602 -92 -590 0
603 -604 -8 0
603 604 8 0
604 -605 606 0
604 -606 605 0
605 -118 422 0
605 -422 118 0
606 -607 0
606 -610 0
607 -608 0
607 -609 0
608 -105 -410 0
609 -410 -598 0
61 -62 68 0
61 -68 62 0
610 -105 -598 0
611 -452 -612 0
611 -612 -624 0
611 452 -624 0
612 -613 -621 0
612 -621 -12 0
612 613 -12 0
613 -614 -325 0
614 -615 -313 0
615 -616 -301 0
616 -617 -289 0
617 -618 -277 0
618 -619 -265 0
619 -620 -257 0
62 -63 64 0
62 -64 63 0
620 -252 -8 0
620 252 8 0
621 -539 -622 0
621 -622 -12 0
621 539 -12 0
622 -623 -8 0
622 -8 -12 0
622 623 -12 0
623 -240 -12 0
623 240 12 0
624 -613 -625 0
624 -625 -12 0
624 613 -12 0
625 -549 -622 0
625 -622 -12 0
625 549 -12 0
626 -230 -236 0
626 -236 -627 0
626 230 -627 0
627 -432 -628 0
627 -628 -236 0
627 432 -236 0
628 -450 -629 0
628 -629 -661 0
628 450 -661 0
629 -452 -630 0
629 -630 -646 0
629 452 -646 0
630 -468 -631 0
630 -631 -12 0
630 468 -12 0
631 -622 -12 0
631 -632 -622 0
631 632 -12 0
632 -633 -645 0
633 -634 -644 0
634 -635 -643 0
635 -636 -642 0
636 -637 -641 0
637 -638 -640 0
638 -546 -639 0
639 -352 -8 0
639 352 8 0
64 -65 67 0
64 -67 65 0
640 -360 -8 0
640 360 8 0
641 -372 -8 0
641 372 8 0
642 -384 -8 0
642 384 8 0
643 -396 -8 0
643 396 8 0
644 -408 -8 0
644 408 8 0
645 -420 -8 0
645 420 8 0
646 -548 -12 0
646 -647 -548 0
646 647 -12 0
647 -648 -660 0
648 -649 -659 0
649 -650 -658 0
65 66 0
650 -651 -657 0
651 -652 -656 0
652 -653 -655 0
653 -620 -654 0
654 -258 -8 0
654 258 8 0
655 -266 -8 0
655 266 8 0
656 -278 -8 0
656 278 8 0
657 -290 -8 0
657 290 8 0
658 -302 -8 0
658 302 8 0
659 -314 -8 0
659 314 8 0
660 -326 -8 0
660 326 8 0
661 -452 -630 0
661 -630 -12 0
661 452 -12 0
662 -663 -664 0
662 -664 -13 0
662 663 -13 0
663 -9 -8 0
663 9 8 0
664 -665 -666 0
664 -666 -858 0
664 665 -858 0
665 -17 -12 0
665 17 12 0
666 -667 -682 0
666 -682 -844 0
666 667 -844 0
667 -668 -681 0
668 -669 -680 0
669 -670 -679 0
67 -52 -54 0
670 -671 -678 0
671 -672 -677 0
672 -673 -676 0
673 -674 -675 0
674 -34 -12 0
674 34 12 0
675 -41 -12 0
675 41 12 0
676 -50 -12 0
676 50 12 0
677 -63 -12 0
677 63 12 0
678 -76 -12 0
678 76 12 0
679 -89 -12 0
679 89 12 0
68 -69 0
68 -72 0
680 -102 -12 0
680 102 12 0
681 -115 -12 0
681 115 12 0
682 -683 -684 0
682 -684 -12 0
682 683 -12 0
683 -20 -8 0
683 20 8 0
684 -685 -700 0
684 -700 -780 0
684 685 -780 0
685 -686 -699 0
686 -687 -698 0
687 -688 -697 0
688 -689 -696 0
689 -690 -695 0
69 -70 0
69 -71 0
690 -691 -694 0
691 -692 -693 0
692 -34 -8 0
692 34 8 0
693 -41 -8 0
693 41 8 0
694 -50 -8 0
694 50 8 0
695 -63 -8 0
695 63 8 0
696 -76 -8 0
696 76 8 0
697 -89 -8 0
697 89 8 0
698 -102 -8 0
698 102 8 0
699 -115 -8 0
699 115 8 0
70 -50 -51 0
700 -701 -771 0
700 -771 -12 0
700 701 -12 0
701 -702 -762 0
702 -703 -753 0
703 -704 -744 0
704 -705 -735 0
705 -706 -726 0
706 -707 -717 0
707 -708 -712 0
708 -709 -12 0
708 709 12 0
709 -12 710 0
709 -710 12 0
71 -51 -55 0
710 -35 711 0
710 -711 35 0
712 -713 -12 0
712 713 12 0
713 -714 716 0
713 -716 714 0
714 -42 715 0
714 -715 42 0
716 -711 -35 0
717 -718 -12 0
717 718 12 0
718 -719 721 0
718 -721 719 0
719 -51 720 0
719 -720 51 0
72 -50 -55 0
721 -722 0
721 -725 0
722 -723 0
722 -724 0
723 -715 -42 0
724 -42 -716 0
725 -715 -716 0
726 -727 -12 0
726 727 12 0
727 -728 730 0
727 -730 728 0
728 -64 729 0
728 -729 64 0
73 -74 -12 0
73 74 12 0
730 -731 0
730 -734 0
731 -732 0
731 -733 0
732 -720 -51 0
733 -51 -721 0
734 -720 -721 0
735 -736 -12 0
735 736 12 0
736 -737 739 0
736 -739 737 0
737 -738 77 0
737 -77 738 0
739 -740 0
739 -743 0
74 -75 81 0
74 -81 75 0
740 -741 0
740 -742 0
741 -729 -64 0
742 -64 -730 0
743 -729 -730 0
744 -745 -12 0
744 745 12 0
745 -746 748 0
745 -748 746 0
746 -747 90 0
746 -90 747 0
748 -749 0
748 -752 0
749 -750 0
749 -751 0
75 -76 77 0
75 -77 76 0
750 -738 -77 0
751 -77 -739 0
752 -738 -739 0
753 -754 -12 0
753 754 12 0
754 -755 757 0
754 -757 755 0
755 -103 756 0
755 -756 103 0
757 -758 0
757 -761 0
758 -759 0
758 -760 0
759 -747 -90 0
760 -90 -748 0
761 -747 -748 0
762 -763 -12 0
762 763 12 0
763 -764 766 0
763 -766 764 0
764 -116 765 0
764 -765 116 0
766 -767 0
766 -770 0
767 -768 0
767 -769 0
768 -756 -103 0
769 -103 -757 0
77 -78 80 0
77 -80 78 0
770 -756 -757 0
771 -227 -12 0
771 -772 -227 0
771 772 -12 0
772 -773 -214 0
773 -774 -201 0
774 -775 -188 0
775 -776 -175 0
776 -777 -162 0
777 -778 -149 0
778 -779 -140 0
779 -134 -8 0
779 134 8 0
78 79 0
780 -701 -781 0
780 -781 -12 0
780 701 -12 0
781 -227 -12 0
781 -782 -227 0
781 782 -12 0
782 -783 -836 0
783 -784 -828 0
784 -785 -820 0
785 -786 -812 0
786 -787 -804 0
787 -788 -796 0
788 -789 -792 0
789 -790 -8 0
789 790 8 0
790 -12 791 0
790 -791 12 0
791 -137 34 0
791 -34 137 0
792 -793 -8 0
792 793 8 0
793 -794 795 0
793 -795 794 0
794 -144 41 0
794 -41 144 0
795 -34 -137 0
796 -797 -8 0
796 797 8 0
797 -798 799 0
797 -799 798 0
798 -153 50 0
798 -50 153 0
799 -800 0
799 -803 0
8 0
80 -65 -67 0
800 -801 0
800 -802 0
801 -41 -144 0
802 -144 -795 0
803 -41 -795 0
804 -805 -8 0
804 805 8 0
805 -806 807 0
805 -807 806 0
806 -166 63 0
806 -63 166 0
807 -808 0
807 -811 0
808 -809 0
808 -810 0
809 -50 -153 0
81 -82 0
81 -85 0
810 -153 -799 0
811 -50 -799 0
812 -813 -8 0
812 813 8 0
813 -814 815 0
813 -815 814 0
814 -179 76 0
814 -76 179 0
815 -816 0
815 -819 0
816 -817 0
816 -818 0
817 -63 -166 0
818 -166 -807 0
819 -63 -807 0
82 -83 0
82 -84 0
820 -821 -8 0
820 821 8 0
821 -822 823 0
821 -823 822 0
822 -192 89 0
822 -89 192 0
823 -824 0
823 -827 0
824 -825 0
824 -826 0
825 -76 -179 0
826 -179 -815 0
827 -76 -815 0
828 -829 -8 0
828 829 8 0
829 -830 831 0
829 -831 830 0
83 -63 -64 0
830 -102 205 0
830 -205 102 0
831 -832 0
831 -835 0
832 -833 0
832 -834 0
833 -89 -192 0
834 -192 -823 0
835 -89 -823 0
836 -837 -8 0
836 837 8 0
837 -838 839 0
837 -839 838 0
838 -115 218 0
838 -218 115 0
839 -840 0
839 -843 0
84 -64 -68 0
840 -841 0
840 -842 0
841 -102 -205 0
842 -205 -831 0
843 -102 -831 0
844 -685 -845 0
844 -845 -856 0
844 685 -856 0
845 -846 -854 0
845 -854 -12 0
845 846 -12 0
846 -847 -112 0
847 -848 -99 0
848 -849 -86 0
849 -850 -73 0
85 -63 -68 0
850 -851 -60 0
851 -852 -47 0
852 -853 -38 0
853 -32 -8 0
853 32 8 0
854 -772 -855 0
854 -855 -12 0
854 772 -12 0
855 -228 -229 0
855 -229 -12 0
855 228 -12 0
856 -846 -857 0
856 -857 -12 0
856 846 -12 0
857 -782 -855 0
857 -855 -12 0
857 782 -12 0
858 -683 -859 0
858 -859 -891 0
858 683 -891 0
859 -685 -860 0
859 -860 -876 0
859 685 -876 0
86 -87 -12 0
86 87 12 0
860 -701 -861 0
860 -861 -12 0
860 701 -12 0
861 -855 -12 0
861 -862 -855 0
861 862 -12 0
862 -863 -875 0
863 -864 -874 0
864 -865 -873 0
865 -866 -872 0
866 -867 -871 0
867 -868 -870 0
868 -779 -869 0
869 -141 -8 0
869 141 8 0
87 -88 94 0
87 -94 88 0
870 -150 -8 0
870 150 8 0
871 -163 -8 0
871 163 8 0
872 -176 -8 0
872 176 8 0
873 -189 -8 0
873 189 8 0
874 -202 -8 0
874 202 8 0
875 -215 -8 0
875 215 8 0
876 -781 -12 0
876 -877 -781 0
876 877 -12 0
877 -878 -890 0
878 -879 -889 0
879 -880 -888 0
88 -89 90 0
88 -90 89 0
880 -881 -887 0
881 -882 -886 0
882 -883 -885 0
883 -853 -884 0
884 -39 -8 0
884 39 8 0
885 -48 -8 0
885 48 8 0
886 -61 -8 0
886 61 8 0
887 -74 -8 0
887 74 8 0
888 -87 -8 0
888 87 8 0
889 -100 -8 0
889 100 8 0
890 -113 -8 0
890 113 8 0
891 -685 -860 0
891 -860 -12 0
891 685 -12 0
9 -10 8 0
9 -8 10 0
90 -91 93 0
90 -93 91 0
91 92 0
93 -78 -80 0
94 -95 0
94 -98 0
95 -96 0
95 -97 0
96 -76 -77 0
97 -77 -81 0
98 -76 -81 0
99 -100 -12 0
99 100 12 0
